benchmark/results/graph__15-1000-0.10-04_9/graph__15-1000-0.10-04_9_Quinton_Benders_primal_sub.lp
\ This file has been generated by DOcplex
\ ENCODING=ISO-8859-1
\Problem name: Quinton Benders_primal_sub

Maximize
 obj: tau
Subject To
 c1: tau <= 0.000955109838
 c2: y_a0_proc_0 + y_a0_proc_1 + y_a0_proc_2 + y_a0_proc_3 - tau = 0
 c3: y_a0_proc_0 <= 0
 c4: y_a0_proc_1 <= 1
 c5: y_a0_proc_2 <= 0
 c6: y_a0_proc_3 <= 0
 c7: tau <= 0.000864304235
 c8: y_a1_proc_0 + y_a1_proc_2 + y_a1_proc_3 - tau = 0
 c9: y_a1_proc_0 <= 0
 c10: y_a1_proc_2 <= 0
 c11: y_a1_proc_3 <= 1
 c12: tau <= 0.001090512541
 c13: y_a2_proc_0 + y_a2_proc_1 + y_a2_proc_2 + y_a2_proc_3 - tau = 0
 c14: y_a2_proc_0 <= 0
 c15: y_a2_proc_1 <= 0
 c16: y_a2_proc_2 <= 0
 c17: y_a2_proc_3 <= 1
 c18: tau <= 0.001209189843
 c19: y_a3_proc_0 + y_a3_proc_1 - tau = 0
 c20: y_a3_proc_0 <= 0
 c21: y_a3_proc_1 <= 1
 c22: tau <= 0.003174603175
 c23: y_a4_proc_0 + y_a4_proc_1 + y_a4_proc_2 + y_a4_proc_3 - tau = 0
 c24: y_a4_proc_0 <= 0
 c25: y_a4_proc_1 <= 0
 c26: y_a4_proc_2 <= 1
 c27: y_a4_proc_3 <= 0
 c28: tau <= 0.001449275362
 c29: y_a5_proc_0 + y_a5_proc_1 + y_a5_proc_2 + y_a5_proc_3 - tau = 0
 c30: y_a5_proc_0 <= 0
 c31: y_a5_proc_1 <= 0
 c32: y_a5_proc_2 <= 1
 c33: y_a5_proc_3 <= 0
 c34: tau <= 0.001522070015
 c35: y_a6_proc_2 + y_a6_proc_3 - tau = 0
 c36: y_a6_proc_2 <= 0
 c37: y_a6_proc_3 <= 1
 c38: tau <= 0.000945179584
 c39: y_a7_proc_1 + y_a7_proc_2 + y_a7_proc_3 - tau = 0
 c40: y_a7_proc_1 <= 0
 c41: y_a7_proc_2 <= 0
 c42: y_a7_proc_3 <= 1
 c43: tau <= 0.001223990208
 c44: y_a8_proc_0 + y_a8_proc_1 + y_a8_proc_2 + y_a8_proc_3 - tau = 0
 c45: y_a8_proc_0 <= 1
 c46: y_a8_proc_1 <= 0
 c47: y_a8_proc_2 <= 0
 c48: y_a8_proc_3 <= 0
 c49: tau <= 0.001034126163
 c50: y_a9_proc_0 - tau = 0
 c51: y_a9_proc_0 <= 1
 c52: tau <= 0.001574803150
 c53: y_a10_proc_0 + y_a10_proc_1 + y_a10_proc_2 - tau = 0
 c54: y_a10_proc_0 <= 0
 c55: y_a10_proc_1 <= 1
 c56: y_a10_proc_2 <= 0
 c57: tau <= 0.001379310345
 c58: y_a11_proc_0 + y_a11_proc_1 + y_a11_proc_2 + y_a11_proc_3 - tau = 0
 c59: y_a11_proc_0 <= 0
 c60: y_a11_proc_1 <= 0
 c61: y_a11_proc_2 <= 1
 c62: y_a11_proc_3 <= 0
 c63: tau <= 0.000856164384
 c64: y_a12_proc_0 + y_a12_proc_1 + y_a12_proc_2 + y_a12_proc_3 - tau = 0
 c65: y_a12_proc_0 <= 1
 c66: y_a12_proc_1 <= 0
 c67: y_a12_proc_2 <= 0
 c68: y_a12_proc_3 <= 0
 c69: tau <= 0.000994035785
 c70: y_a13_proc_0 + y_a13_proc_1 + y_a13_proc_2 + y_a13_proc_3 - tau = 0
 c71: y_a13_proc_0 <= 0
 c72: y_a13_proc_1 <= 0
 c73: y_a13_proc_2 <= 1
 c74: y_a13_proc_3 <= 0
 c75: tau <= 0.001636661211
 c76: y_a14_proc_0 + y_a14_proc_1 - tau = 0
 c77: y_a14_proc_0 <= 0
 c78: y_a14_proc_1 <= 1
 c79: u_a1 - u_a0 - 1253 y_a0_proc_0 - 1047 y_a0_proc_1 - 1139 y_a0_proc_2
      - 1247 y_a0_proc_3 >= -1
 c80: u_a2 - u_a1 - 780 y_a1_proc_0 - 650 y_a1_proc_2 - 1157 y_a1_proc_3 >= -1
 c81: u_a3 - u_a2 - 959 y_a2_proc_0 - 1295 y_a2_proc_1 - 1073 y_a2_proc_2
      - 917 y_a2_proc_3 >= 0
 c82: u_a2 - u_a4 - 492 y_a4_proc_0 - 714 y_a4_proc_1 - 315 y_a4_proc_2
      - 558 y_a4_proc_3 >= 0
 c83: u_a5 - u_a3 - 970 y_a3_proc_0 - 827 y_a3_proc_1 >= 0
 c84: u_a0 - u_a6 - 988 y_a6_proc_2 - 657 y_a6_proc_3 >= 0
 c85: u_a7 - u_a5 - 901 y_a5_proc_0 - 1250 y_a5_proc_1 - 690 y_a5_proc_2
      - 1042 y_a5_proc_3 >= 0
 c86: u_a8 - u_a6 - 988 y_a6_proc_2 - 657 y_a6_proc_3 >= 0
 c87: u_a4 - u_a9 - 967 y_a9_proc_0 >= 0
 c88: u_a6 - u_a10 - 862 y_a10_proc_0 - 635 y_a10_proc_1 - 1151 y_a10_proc_2
       >= 0
 c89: u_a10 - u_a11 - 1231 y_a11_proc_0 - 1028 y_a11_proc_1 - 725 y_a11_proc_2
      - 1226 y_a11_proc_3 >= -1
 c90: u_a6 - u_a12 - 1168 y_a12_proc_0 - 692 y_a12_proc_1 - 743 y_a12_proc_2
      - 1054 y_a12_proc_3 >= 0
 c91: u_a9 - u_a13 - 1155 y_a13_proc_0 - 1297 y_a13_proc_1 - 1006 y_a13_proc_2
      - 1039 y_a13_proc_3 >= -1
 c92: u_a14 - u_a6 - 988 y_a6_proc_2 - 657 y_a6_proc_3 >= 0
 c93: u_a11 - u_a14 - 1016 y_a14_proc_0 - 611 y_a14_proc_1 >= 0
 c94: u_a4 - u_a8 - 817 y_a8_proc_0 - 1080 y_a8_proc_1 - 1070 y_a8_proc_2
      - 779 y_a8_proc_3 >= -1
 c95: u_a9 - u_a8 - 817 y_a8_proc_0 - 1080 y_a8_proc_1 - 1070 y_a8_proc_2
      - 779 y_a8_proc_3 >= -1
 c96: u_a12 - u_a9 - 967 y_a9_proc_0 >= 0
 c97: u_a13 - u_a7 - 849 y_a7_proc_1 - 1278 y_a7_proc_2 - 1058 y_a7_proc_3 >= 0
 c98: u_a10 - u_a4 - 492 y_a4_proc_0 - 714 y_a4_proc_1 - 315 y_a4_proc_2
      - 558 y_a4_proc_3 >= 0
 c99: u_a10 - u_a13 - 1155 y_a13_proc_0 - 1297 y_a13_proc_1 - 1006 y_a13_proc_2
      - 1039 y_a13_proc_3 >= -1
 c100: u_a1 - u_a0 - 1253 y_a0_proc_0 >= -3891
 c101: u_a1 - u_a0 - 1139 y_a0_proc_2 >= -3891
 c102: u_a1 - u_a0 - 1247 y_a0_proc_3 >= -2594
 c103: u_a0 - u_a1 - 780 y_a1_proc_0 >= -1298
 c104: u_a0 - u_a1 - 650 y_a1_proc_2 >= -1298
 c105: u_a0 - u_a1 - 1157 y_a1_proc_3 >= -1
 c106: u_a2 - u_a0 - 1253 y_a0_proc_0 >= -3892
 c107: u_a2 - u_a0 - 1139 y_a0_proc_2 >= -3892
 c108: u_a2 - u_a0 - 1047 y_a0_proc_1 >= -2595
 c109: u_a2 - u_a0 - 1247 y_a0_proc_3 >= -2595
 c110: u_a0 - u_a2 - 959 y_a2_proc_0 >= -1297
 c111: u_a0 - u_a2 - 1073 y_a2_proc_2 >= -1297
 c112: u_a0 - u_a2 - 1295 y_a2_proc_1 >= 0
 c113: u_a0 - u_a2 - 917 y_a2_proc_3 >= 0
 c114: u_a3 - u_a0 - 1253 y_a0_proc_0 >= -2595
 c115: u_a3 - u_a0 - 1047 y_a0_proc_1 >= -1
 c116: u_a0 - u_a3 - 970 y_a3_proc_0 >= -2594
 c117: u_a0 - u_a3 - 827 y_a3_proc_1 >= 0
 c118: u_a4 - u_a0 - 1253 y_a0_proc_0 >= -3892
 c119: u_a4 - u_a0 - 1139 y_a0_proc_2 >= -2595
 c120: u_a4 - u_a0 - 1047 y_a0_proc_1 >= -2595
 c121: u_a4 - u_a0 - 1247 y_a0_proc_3 >= -3892
 c122: u_a0 - u_a4 - 492 y_a4_proc_0 >= -1297
 c123: u_a0 - u_a4 - 315 y_a4_proc_2 >= 0
 c124: u_a0 - u_a4 - 714 y_a4_proc_1 >= 0
 c125: u_a0 - u_a4 - 558 y_a4_proc_3 >= -1297
 c126: u_a5 - u_a0 - 1253 y_a0_proc_0 >= -3891
 c127: u_a5 - u_a0 - 1139 y_a0_proc_2 >= -2594
 c128: u_a5 - u_a0 - 1047 y_a0_proc_1 >= -2594
 c129: u_a5 - u_a0 - 1247 y_a0_proc_3 >= -3891
 c130: u_a0 - u_a5 - 901 y_a5_proc_0 >= -1298
 c131: u_a0 - u_a5 - 690 y_a5_proc_2 >= -1
 c132: u_a0 - u_a5 - 1250 y_a5_proc_1 >= -1
 c133: u_a0 - u_a5 - 1042 y_a5_proc_3 >= -1298
 c134: u_a6 - u_a0 - 1139 y_a0_proc_2 >= -3892
 c135: u_a6 - u_a0 - 1247 y_a0_proc_3 >= -2595
 c136: u_a0 - u_a6 - 988 y_a6_proc_2 >= -1297
 c137: u_a0 - u_a6 - 657 y_a6_proc_3 >= 0
 c138: u_a7 - u_a0 - 1139 y_a0_proc_2 >= -3892
 c139: u_a7 - u_a0 - 1047 y_a0_proc_1 >= -2595
 c140: u_a7 - u_a0 - 1247 y_a0_proc_3 >= -2595
 c141: u_a0 - u_a7 - 1278 y_a7_proc_2 >= -1297
 c142: u_a0 - u_a7 - 849 y_a7_proc_1 >= 0
 c143: u_a0 - u_a7 - 1058 y_a7_proc_3 >= 0
 c144: u_a8 - u_a0 - 1253 y_a0_proc_0 >= -2594
 c145: u_a8 - u_a0 - 1139 y_a0_proc_2 >= -3891
 c146: u_a8 - u_a0 - 1047 y_a0_proc_1 >= -2594
 c147: u_a8 - u_a0 - 1247 y_a0_proc_3 >= -3891
 c148: u_a0 - u_a8 - 817 y_a8_proc_0 >= -1
 c149: u_a0 - u_a8 - 1070 y_a8_proc_2 >= -1298
 c150: u_a0 - u_a8 - 1080 y_a8_proc_1 >= -1
 c151: u_a0 - u_a8 - 779 y_a8_proc_3 >= -1298
 c152: u_a9 - u_a0 - 1253 y_a0_proc_0 >= -2595
 c153: u_a0 - u_a9 - 967 y_a9_proc_0 >= 0
 c154: u_a10 - u_a0 - 1253 y_a0_proc_0 >= -2595
 c155: u_a10 - u_a0 - 1139 y_a0_proc_2 >= -2595
 c156: u_a10 - u_a0 - 1047 y_a0_proc_1 >= -1
 c157: u_a0 - u_a10 - 862 y_a10_proc_0 >= -2594
 c158: u_a0 - u_a10 - 1151 y_a10_proc_2 >= -2594
 c159: u_a0 - u_a10 - 635 y_a10_proc_1 >= 0
 c160: u_a11 - u_a0 - 1253 y_a0_proc_0 >= -1297
 c161: u_a11 - u_a0 - 1139 y_a0_proc_2 >= 0
 c162: u_a11 - u_a0 - 1047 y_a0_proc_1 >= 0
 c163: u_a11 - u_a0 - 1247 y_a0_proc_3 >= -1297
 c164: u_a0 - u_a11 - 1231 y_a11_proc_0 >= -3892
 c165: u_a0 - u_a11 - 725 y_a11_proc_2 >= -2595
 c166: u_a0 - u_a11 - 1028 y_a11_proc_1 >= -2595
 c167: u_a0 - u_a11 - 1226 y_a11_proc_3 >= -3892
 c168: u_a12 - u_a0 - 1253 y_a0_proc_0 >= -2595
 c169: u_a12 - u_a0 - 1139 y_a0_proc_2 >= -3892
 c170: u_a12 - u_a0 - 1047 y_a0_proc_1 >= -2595
 c171: u_a12 - u_a0 - 1247 y_a0_proc_3 >= -3892
 c172: u_a0 - u_a12 - 1168 y_a12_proc_0 >= 0
 c173: u_a0 - u_a12 - 743 y_a12_proc_2 >= -1297
 c174: u_a0 - u_a12 - 692 y_a12_proc_1 >= 0
 c175: u_a0 - u_a12 - 1054 y_a12_proc_3 >= -1297
 c176: u_a13 - u_a0 - 1253 y_a0_proc_0 >= -3891
 c177: u_a13 - u_a0 - 1139 y_a0_proc_2 >= -2594
 c178: u_a13 - u_a0 - 1047 y_a0_proc_1 >= -2594
 c179: u_a13 - u_a0 - 1247 y_a0_proc_3 >= -3891
 c180: u_a0 - u_a13 - 1155 y_a13_proc_0 >= -1298
 c181: u_a0 - u_a13 - 1006 y_a13_proc_2 >= -1
 c182: u_a0 - u_a13 - 1297 y_a13_proc_1 >= -1
 c183: u_a0 - u_a13 - 1039 y_a13_proc_3 >= -1298
 c184: u_a14 - u_a0 - 1253 y_a0_proc_0 >= -2595
 c185: u_a14 - u_a0 - 1047 y_a0_proc_1 >= -1
 c186: u_a0 - u_a14 - 1016 y_a14_proc_0 >= -2594
 c187: u_a0 - u_a14 - 611 y_a14_proc_1 >= 0
 c188: u_a2 - u_a1 - 780 y_a1_proc_0 >= -2595
 c189: u_a2 - u_a1 - 650 y_a1_proc_2 >= -2595
 c190: u_a2 - u_a1 - 1157 y_a1_proc_3 >= -1
 c191: u_a1 - u_a2 - 959 y_a2_proc_0 >= -2594
 c192: u_a1 - u_a2 - 1073 y_a2_proc_2 >= -2594
 c193: u_a1 - u_a2 - 917 y_a2_proc_3 >= 0
 c194: u_a3 - u_a1 - 780 y_a1_proc_0 >= -5189
 c195: u_a1 - u_a3 - 970 y_a3_proc_0 >= 0
 c196: u_a4 - u_a1 - 780 y_a1_proc_0 >= -1298
 c197: u_a4 - u_a1 - 650 y_a1_proc_2 >= -1
 c198: u_a4 - u_a1 - 1157 y_a1_proc_3 >= -1
 c199: u_a1 - u_a4 - 492 y_a4_proc_0 >= -3891
 c200: u_a1 - u_a4 - 315 y_a4_proc_2 >= -2594
 c201: u_a1 - u_a4 - 558 y_a4_proc_3 >= -2594
 c202: u_a5 - u_a1 - 780 y_a1_proc_0 >= -3892
 c203: u_a5 - u_a1 - 650 y_a1_proc_2 >= -2595
 c204: u_a5 - u_a1 - 1157 y_a1_proc_3 >= -2595
 c205: u_a1 - u_a5 - 901 y_a5_proc_0 >= -1297
 c206: u_a1 - u_a5 - 690 y_a5_proc_2 >= 0
 c207: u_a1 - u_a5 - 1042 y_a5_proc_3 >= 0
 c208: u_a6 - u_a1 - 650 y_a1_proc_2 >= -2595
 c209: u_a6 - u_a1 - 1157 y_a1_proc_3 >= -1
 c210: u_a1 - u_a6 - 988 y_a6_proc_2 >= -2594
 c211: u_a1 - u_a6 - 657 y_a6_proc_3 >= 0
 c212: u_a7 - u_a1 - 650 y_a1_proc_2 >= -2595
 c213: u_a7 - u_a1 - 1157 y_a1_proc_3 >= -1
 c214: u_a1 - u_a7 - 1278 y_a7_proc_2 >= -2594
 c215: u_a1 - u_a7 - 1058 y_a7_proc_3 >= 0
 c216: u_a8 - u_a1 - 780 y_a1_proc_0 >= -2594
 c217: u_a8 - u_a1 - 650 y_a1_proc_2 >= -3891
 c218: u_a8 - u_a1 - 1157 y_a1_proc_3 >= -2594
 c219: u_a1 - u_a8 - 817 y_a8_proc_0 >= -1
 c220: u_a1 - u_a8 - 1070 y_a8_proc_2 >= -1298
 c221: u_a1 - u_a8 - 779 y_a8_proc_3 >= -1
 c222: u_a9 - u_a1 - 780 y_a1_proc_0 >= -2595
 c223: u_a1 - u_a9 - 967 y_a9_proc_0 >= 0
 c224: u_a10 - u_a1 - 780 y_a1_proc_0 >= -5189
 c225: u_a10 - u_a1 - 650 y_a1_proc_2 >= -5189
 c226: u_a1 - u_a10 - 862 y_a10_proc_0 >= 0
 c227: u_a1 - u_a10 - 1151 y_a10_proc_2 >= 0
 c228: u_a11 - u_a1 - 780 y_a1_proc_0 >= -3891
 c229: u_a11 - u_a1 - 650 y_a1_proc_2 >= -2594
 c230: u_a11 - u_a1 - 1157 y_a1_proc_3 >= -2594
 c231: u_a1 - u_a11 - 1231 y_a11_proc_0 >= -1298
 c232: u_a1 - u_a11 - 725 y_a11_proc_2 >= -1
 c233: u_a1 - u_a11 - 1226 y_a11_proc_3 >= -1
 c234: u_a12 - u_a1 - 780 y_a1_proc_0 >= -2
 c235: u_a12 - u_a1 - 650 y_a1_proc_2 >= -1299
 c236: u_a12 - u_a1 - 1157 y_a1_proc_3 >= -2
 c237: u_a1 - u_a12 - 1168 y_a12_proc_0 >= -2593
 c238: u_a1 - u_a12 - 743 y_a12_proc_2 >= -3890
 c239: u_a1 - u_a12 - 1054 y_a12_proc_3 >= -2593
 c240: u_a13 - u_a1 - 780 y_a1_proc_0 >= -3892
 c241: u_a13 - u_a1 - 650 y_a1_proc_2 >= -2595
 c242: u_a13 - u_a1 - 1157 y_a1_proc_3 >= -2595
 c243: u_a1 - u_a13 - 1155 y_a13_proc_0 >= -1297
 c244: u_a1 - u_a13 - 1006 y_a13_proc_2 >= 0
 c245: u_a1 - u_a13 - 1039 y_a13_proc_3 >= 0
 c246: u_a14 - u_a1 - 780 y_a1_proc_0 >= -5189
 c247: u_a1 - u_a14 - 1016 y_a14_proc_0 >= 0
 c248: u_a3 - u_a2 - 959 y_a2_proc_0 >= -3891
 c249: u_a3 - u_a2 - 1295 y_a2_proc_1 >= -2594
 c250: u_a2 - u_a3 - 970 y_a3_proc_0 >= -1298
 c251: u_a2 - u_a3 - 827 y_a3_proc_1 >= -1
 c252: u_a4 - u_a2 - 959 y_a2_proc_0 >= -3892
 c253: u_a4 - u_a2 - 1073 y_a2_proc_2 >= -2595
 c254: u_a4 - u_a2 - 1295 y_a2_proc_1 >= -3892
 c255: u_a4 - u_a2 - 917 y_a2_proc_3 >= -2595
 c256: u_a2 - u_a4 - 492 y_a4_proc_0 >= -1297
 c257: u_a2 - u_a4 - 315 y_a4_proc_2 >= 0
 c258: u_a2 - u_a4 - 714 y_a4_proc_1 >= -1297
 c259: u_a2 - u_a4 - 558 y_a4_proc_3 >= 0
 c260: u_a5 - u_a2 - 959 y_a2_proc_0 >= -3891
 c261: u_a5 - u_a2 - 1073 y_a2_proc_2 >= -2594
 c262: u_a5 - u_a2 - 1295 y_a2_proc_1 >= -3891
 c263: u_a5 - u_a2 - 917 y_a2_proc_3 >= -2594
 c264: u_a2 - u_a5 - 901 y_a5_proc_0 >= -1298
 c265: u_a2 - u_a5 - 690 y_a5_proc_2 >= -1
 c266: u_a2 - u_a5 - 1250 y_a5_proc_1 >= -1298
 c267: u_a2 - u_a5 - 1042 y_a5_proc_3 >= -1
 c268: u_a6 - u_a2 - 1073 y_a2_proc_2 >= -2594
 c269: u_a6 - u_a2 - 917 y_a2_proc_3 >= 0
 c270: u_a2 - u_a6 - 988 y_a6_proc_2 >= -2595
 c271: u_a2 - u_a6 - 657 y_a6_proc_3 >= -1
 c272: u_a7 - u_a2 - 1073 y_a2_proc_2 >= -2594
 c273: u_a7 - u_a2 - 1295 y_a2_proc_1 >= -2594
 c274: u_a7 - u_a2 - 917 y_a2_proc_3 >= 0
 c275: u_a2 - u_a7 - 1278 y_a7_proc_2 >= -2595
 c276: u_a2 - u_a7 - 849 y_a7_proc_1 >= -2595
 c277: u_a2 - u_a7 - 1058 y_a7_proc_3 >= -1
 c278: u_a8 - u_a2 - 959 y_a2_proc_0 >= -2594
 c279: u_a8 - u_a2 - 1073 y_a2_proc_2 >= -3891
 c280: u_a8 - u_a2 - 1295 y_a2_proc_1 >= -3891
 c281: u_a8 - u_a2 - 917 y_a2_proc_3 >= -2594
 c282: u_a2 - u_a8 - 817 y_a8_proc_0 >= -1
 c283: u_a2 - u_a8 - 1070 y_a8_proc_2 >= -1298
 c284: u_a2 - u_a8 - 1080 y_a8_proc_1 >= -1298
 c285: u_a2 - u_a8 - 779 y_a8_proc_3 >= -1
 c286: u_a9 - u_a2 - 959 y_a2_proc_0 >= -2595
 c287: u_a2 - u_a9 - 967 y_a9_proc_0 >= 0
 c288: u_a10 - u_a2 - 959 y_a2_proc_0 >= -3891
 c289: u_a10 - u_a2 - 1073 y_a2_proc_2 >= -3891
 c290: u_a10 - u_a2 - 1295 y_a2_proc_1 >= -2594
 c291: u_a2 - u_a10 - 862 y_a10_proc_0 >= -1298
 c292: u_a2 - u_a10 - 1151 y_a10_proc_2 >= -1298
 c293: u_a2 - u_a10 - 635 y_a10_proc_1 >= -1
 c294: u_a11 - u_a2 - 959 y_a2_proc_0 >= -3890
 c295: u_a11 - u_a2 - 1073 y_a2_proc_2 >= -2593
 c296: u_a11 - u_a2 - 1295 y_a2_proc_1 >= -3890
 c297: u_a11 - u_a2 - 917 y_a2_proc_3 >= -2593
 c298: u_a2 - u_a11 - 1231 y_a11_proc_0 >= -1299
 c299: u_a2 - u_a11 - 725 y_a11_proc_2 >= -2
 c300: u_a2 - u_a11 - 1028 y_a11_proc_1 >= -1299
 c301: u_a2 - u_a11 - 1226 y_a11_proc_3 >= -2
 c302: u_a12 - u_a2 - 959 y_a2_proc_0 >= -2595
 c303: u_a12 - u_a2 - 1073 y_a2_proc_2 >= -3892
 c304: u_a12 - u_a2 - 1295 y_a2_proc_1 >= -3892
 c305: u_a12 - u_a2 - 917 y_a2_proc_3 >= -2595
 c306: u_a2 - u_a12 - 1168 y_a12_proc_0 >= 0
 c307: u_a2 - u_a12 - 743 y_a12_proc_2 >= -1297
 c308: u_a2 - u_a12 - 692 y_a12_proc_1 >= -1297
 c309: u_a2 - u_a12 - 1054 y_a12_proc_3 >= 0
 c310: u_a13 - u_a2 - 959 y_a2_proc_0 >= -3891
 c311: u_a13 - u_a2 - 1073 y_a2_proc_2 >= -2594
 c312: u_a13 - u_a2 - 1295 y_a2_proc_1 >= -3891
 c313: u_a13 - u_a2 - 917 y_a2_proc_3 >= -2594
 c314: u_a2 - u_a13 - 1155 y_a13_proc_0 >= -1298
 c315: u_a2 - u_a13 - 1006 y_a13_proc_2 >= -1
 c316: u_a2 - u_a13 - 1297 y_a13_proc_1 >= -1298
 c317: u_a2 - u_a13 - 1039 y_a13_proc_3 >= -1
 c318: u_a14 - u_a2 - 959 y_a2_proc_0 >= -3891
 c319: u_a14 - u_a2 - 1295 y_a2_proc_1 >= -2594
 c320: u_a2 - u_a14 - 1016 y_a14_proc_0 >= -1298
 c321: u_a2 - u_a14 - 611 y_a14_proc_1 >= -1
 c322: u_a4 - u_a3 - 970 y_a3_proc_0 >= -3892
 c323: u_a4 - u_a3 - 827 y_a3_proc_1 >= -2595
 c324: u_a3 - u_a4 - 492 y_a4_proc_0 >= -1297
 c325: u_a3 - u_a4 - 714 y_a4_proc_1 >= 0
 c326: u_a5 - u_a3 - 970 y_a3_proc_0 >= -1297
 c327: u_a5 - u_a3 - 827 y_a3_proc_1 >= 0
 c328: u_a3 - u_a5 - 901 y_a5_proc_0 >= -3892
 c329: u_a3 - u_a5 - 1250 y_a5_proc_1 >= -2595
 c330: u_a7 - u_a3 - 827 y_a3_proc_1 >= -2594
 c331: u_a3 - u_a7 - 849 y_a7_proc_1 >= -1
 c332: u_a8 - u_a3 - 970 y_a3_proc_0 >= -2594
 c333: u_a8 - u_a3 - 827 y_a3_proc_1 >= -2594
 c334: u_a3 - u_a8 - 817 y_a8_proc_0 >= -1
 c335: u_a3 - u_a8 - 1080 y_a8_proc_1 >= -1
 c336: u_a9 - u_a3 - 970 y_a3_proc_0 >= -2595
 c337: u_a3 - u_a9 - 967 y_a9_proc_0 >= 0
 c338: u_a10 - u_a3 - 970 y_a3_proc_0 >= -2594
 c339: u_a10 - u_a3 - 827 y_a3_proc_1 >= 0
 c340: u_a3 - u_a10 - 862 y_a10_proc_0 >= -2595
 c341: u_a3 - u_a10 - 635 y_a10_proc_1 >= -1
 c342: u_a11 - u_a3 - 970 y_a3_proc_0 >= -3891
 c343: u_a11 - u_a3 - 827 y_a3_proc_1 >= -2594
 c344: u_a3 - u_a11 - 1231 y_a11_proc_0 >= -1298
 c345: u_a3 - u_a11 - 1028 y_a11_proc_1 >= -1
 c346: u_a12 - u_a3 - 970 y_a3_proc_0 >= -2595
 c347: u_a12 - u_a3 - 827 y_a3_proc_1 >= -2595
 c348: u_a3 - u_a12 - 1168 y_a12_proc_0 >= 0
 c349: u_a3 - u_a12 - 692 y_a12_proc_1 >= 0
 c350: u_a13 - u_a3 - 970 y_a3_proc_0 >= -3891
 c351: u_a13 - u_a3 - 827 y_a3_proc_1 >= -2594
 c352: u_a3 - u_a13 - 1155 y_a13_proc_0 >= -1298
 c353: u_a3 - u_a13 - 1297 y_a13_proc_1 >= -1
 c354: u_a14 - u_a3 - 970 y_a3_proc_0 >= -2594
 c355: u_a14 - u_a3 - 827 y_a3_proc_1 >= 0
 c356: u_a3 - u_a14 - 1016 y_a14_proc_0 >= -2595
 c357: u_a3 - u_a14 - 611 y_a14_proc_1 >= -1
 c358: u_a5 - u_a4 - 492 y_a4_proc_0 >= -2594
 c359: u_a5 - u_a4 - 315 y_a4_proc_2 >= 0
 c360: u_a5 - u_a4 - 714 y_a4_proc_1 >= -2594
 c361: u_a5 - u_a4 - 558 y_a4_proc_3 >= -2594
 c362: u_a4 - u_a5 - 901 y_a5_proc_0 >= -2595
 c363: u_a4 - u_a5 - 690 y_a5_proc_2 >= -1
 c364: u_a4 - u_a5 - 1250 y_a5_proc_1 >= -2595
 c365: u_a4 - u_a5 - 1042 y_a5_proc_3 >= -2595
 c366: u_a6 - u_a4 - 315 y_a4_proc_2 >= -2594
 c367: u_a6 - u_a4 - 558 y_a4_proc_3 >= -2594
 c368: u_a4 - u_a6 - 988 y_a6_proc_2 >= -1
 c369: u_a4 - u_a6 - 657 y_a6_proc_3 >= -1
 c370: u_a7 - u_a4 - 315 y_a4_proc_2 >= -2594
 c371: u_a7 - u_a4 - 714 y_a4_proc_1 >= -3891
 c372: u_a7 - u_a4 - 558 y_a4_proc_3 >= -2594
 c373: u_a4 - u_a7 - 1278 y_a7_proc_2 >= -1
 c374: u_a4 - u_a7 - 849 y_a7_proc_1 >= -1298
 c375: u_a4 - u_a7 - 1058 y_a7_proc_3 >= -1
 c376: u_a8 - u_a4 - 492 y_a4_proc_0 >= -2594
 c377: u_a8 - u_a4 - 315 y_a4_proc_2 >= -2594
 c378: u_a8 - u_a4 - 714 y_a4_proc_1 >= -3891
 c379: u_a8 - u_a4 - 558 y_a4_proc_3 >= -3891
 c380: u_a4 - u_a8 - 817 y_a8_proc_0 >= -1
 c381: u_a4 - u_a8 - 1070 y_a8_proc_2 >= -1
 c382: u_a4 - u_a8 - 1080 y_a8_proc_1 >= -1298
 c383: u_a4 - u_a8 - 779 y_a8_proc_3 >= -1298
 c384: u_a9 - u_a4 - 492 y_a4_proc_0 >= -2595
 c385: u_a4 - u_a9 - 967 y_a9_proc_0 >= 0
 c386: u_a10 - u_a4 - 492 y_a4_proc_0 >= -3891
 c387: u_a10 - u_a4 - 315 y_a4_proc_2 >= -2594
 c388: u_a10 - u_a4 - 714 y_a4_proc_1 >= -2594
 c389: u_a4 - u_a10 - 862 y_a10_proc_0 >= -1298
 c390: u_a4 - u_a10 - 1151 y_a10_proc_2 >= -1
 c391: u_a4 - u_a10 - 635 y_a10_proc_1 >= -1
 c392: u_a11 - u_a4 - 492 y_a4_proc_0 >= -2593
 c393: u_a11 - u_a4 - 315 y_a4_proc_2 >= 1
 c394: u_a11 - u_a4 - 714 y_a4_proc_1 >= -2593
 c395: u_a11 - u_a4 - 558 y_a4_proc_3 >= -2593
 c396: u_a4 - u_a11 - 1231 y_a11_proc_0 >= -2596
 c397: u_a4 - u_a11 - 725 y_a11_proc_2 >= -2
 c398: u_a4 - u_a11 - 1028 y_a11_proc_1 >= -2596
 c399: u_a4 - u_a11 - 1226 y_a11_proc_3 >= -2596
 c400: u_a12 - u_a4 - 492 y_a4_proc_0 >= -2594
 c401: u_a12 - u_a4 - 315 y_a4_proc_2 >= -2594
 c402: u_a12 - u_a4 - 714 y_a4_proc_1 >= -3891
 c403: u_a12 - u_a4 - 558 y_a4_proc_3 >= -3891
 c404: u_a4 - u_a12 - 1168 y_a12_proc_0 >= -1
 c405: u_a4 - u_a12 - 743 y_a12_proc_2 >= -1
 c406: u_a4 - u_a12 - 692 y_a12_proc_1 >= -1298
 c407: u_a4 - u_a12 - 1054 y_a12_proc_3 >= -1298
 c408: u_a13 - u_a4 - 492 y_a4_proc_0 >= -2594
 c409: u_a13 - u_a4 - 315 y_a4_proc_2 >= 0
 c410: u_a13 - u_a4 - 714 y_a4_proc_1 >= -2594
 c411: u_a13 - u_a4 - 558 y_a4_proc_3 >= -2594
 c412: u_a4 - u_a13 - 1155 y_a13_proc_0 >= -2595
 c413: u_a4 - u_a13 - 1006 y_a13_proc_2 >= -1
 c414: u_a4 - u_a13 - 1297 y_a13_proc_1 >= -2595
 c415: u_a4 - u_a13 - 1039 y_a13_proc_3 >= -2595
 c416: u_a14 - u_a4 - 492 y_a4_proc_0 >= -3891
 c417: u_a14 - u_a4 - 714 y_a4_proc_1 >= -2594
 c418: u_a4 - u_a14 - 1016 y_a14_proc_0 >= -1298
 c419: u_a4 - u_a14 - 611 y_a14_proc_1 >= -1
 c420: u_a6 - u_a5 - 690 y_a5_proc_2 >= -2304
 c421: u_a6 - u_a5 - 1042 y_a5_proc_3 >= -2304
 c422: u_a5 - u_a6 - 988 y_a6_proc_2 >= -291
 c423: u_a5 - u_a6 - 657 y_a6_proc_3 >= -291
 c424: u_a7 - u_a5 - 690 y_a5_proc_2 >= -2594
 c425: u_a7 - u_a5 - 1250 y_a5_proc_1 >= -3891
 c426: u_a7 - u_a5 - 1042 y_a5_proc_3 >= -2594
 c427: u_a5 - u_a7 - 1278 y_a7_proc_2 >= -1
 c428: u_a5 - u_a7 - 849 y_a7_proc_1 >= -1298
 c429: u_a5 - u_a7 - 1058 y_a7_proc_3 >= -1
 c430: u_a8 - u_a5 - 901 y_a5_proc_0 >= -2594
 c431: u_a8 - u_a5 - 690 y_a5_proc_2 >= -2594
 c432: u_a8 - u_a5 - 1250 y_a5_proc_1 >= -3891
 c433: u_a8 - u_a5 - 1042 y_a5_proc_3 >= -3891
 c434: u_a5 - u_a8 - 817 y_a8_proc_0 >= -1
 c435: u_a5 - u_a8 - 1070 y_a8_proc_2 >= -1
 c436: u_a5 - u_a8 - 1080 y_a8_proc_1 >= -1298
 c437: u_a5 - u_a8 - 779 y_a8_proc_3 >= -1298
 c438: u_a9 - u_a5 - 901 y_a5_proc_0 >= -2595
 c439: u_a5 - u_a9 - 967 y_a9_proc_0 >= 0
 c440: u_a10 - u_a5 - 901 y_a5_proc_0 >= -3892
 c441: u_a10 - u_a5 - 690 y_a5_proc_2 >= -2595
 c442: u_a10 - u_a5 - 1250 y_a5_proc_1 >= -2595
 c443: u_a5 - u_a10 - 862 y_a10_proc_0 >= -1297
 c444: u_a5 - u_a10 - 1151 y_a10_proc_2 >= 0
 c445: u_a5 - u_a10 - 635 y_a10_proc_1 >= 0
 c446: u_a11 - u_a5 - 901 y_a5_proc_0 >= -2594
 c447: u_a11 - u_a5 - 690 y_a5_proc_2 >= 0
 c448: u_a11 - u_a5 - 1250 y_a5_proc_1 >= -2594
 c449: u_a11 - u_a5 - 1042 y_a5_proc_3 >= -2594
 c450: u_a5 - u_a11 - 1231 y_a11_proc_0 >= -2595
 c451: u_a5 - u_a11 - 725 y_a11_proc_2 >= -1
 c452: u_a5 - u_a11 - 1028 y_a11_proc_1 >= -2595
 c453: u_a5 - u_a11 - 1226 y_a11_proc_3 >= -2595
 c454: u_a12 - u_a5 - 901 y_a5_proc_0 >= -2595
 c455: u_a12 - u_a5 - 690 y_a5_proc_2 >= -2595
 c456: u_a12 - u_a5 - 1250 y_a5_proc_1 >= -3892
 c457: u_a12 - u_a5 - 1042 y_a5_proc_3 >= -3892
 c458: u_a5 - u_a12 - 1168 y_a12_proc_0 >= 0
 c459: u_a5 - u_a12 - 743 y_a12_proc_2 >= 0
 c460: u_a5 - u_a12 - 692 y_a12_proc_1 >= -1297
 c461: u_a5 - u_a12 - 1054 y_a12_proc_3 >= -1297
 c462: u_a13 - u_a5 - 901 y_a5_proc_0 >= -2594
 c463: u_a13 - u_a5 - 690 y_a5_proc_2 >= 0
 c464: u_a13 - u_a5 - 1250 y_a5_proc_1 >= -2594
 c465: u_a13 - u_a5 - 1042 y_a5_proc_3 >= -2594
 c466: u_a5 - u_a13 - 1155 y_a13_proc_0 >= -2595
 c467: u_a5 - u_a13 - 1006 y_a13_proc_2 >= -1
 c468: u_a5 - u_a13 - 1297 y_a13_proc_1 >= -2595
 c469: u_a5 - u_a13 - 1039 y_a13_proc_3 >= -2595
 c470: u_a14 - u_a5 - 901 y_a5_proc_0 >= -3891
 c471: u_a14 - u_a5 - 1250 y_a5_proc_1 >= -2594
 c472: u_a5 - u_a14 - 1016 y_a14_proc_0 >= -1298
 c473: u_a5 - u_a14 - 611 y_a14_proc_1 >= -1
 c474: u_a7 - u_a6 - 988 y_a6_proc_2 >= -2594
 c475: u_a7 - u_a6 - 657 y_a6_proc_3 >= 0
 c476: u_a6 - u_a7 - 1278 y_a7_proc_2 >= -2595
 c477: u_a6 - u_a7 - 1058 y_a7_proc_3 >= -1
 c478: u_a8 - u_a6 - 988 y_a6_proc_2 >= -1297
 c479: u_a8 - u_a6 - 657 y_a6_proc_3 >= 0
 c480: u_a6 - u_a8 - 1070 y_a8_proc_2 >= -3892
 c481: u_a6 - u_a8 - 779 y_a8_proc_3 >= -2595
 c482: u_a10 - u_a6 - 988 y_a6_proc_2 >= -5188
 c483: u_a6 - u_a10 - 1151 y_a10_proc_2 >= -1
 c484: u_a11 - u_a6 - 988 y_a6_proc_2 >= -2594
 c485: u_a11 - u_a6 - 657 y_a6_proc_3 >= -2594
 c486: u_a6 - u_a11 - 725 y_a11_proc_2 >= -1
 c487: u_a6 - u_a11 - 1226 y_a11_proc_3 >= -1
 c488: u_a12 - u_a6 - 988 y_a6_proc_2 >= -3892
 c489: u_a12 - u_a6 - 657 y_a6_proc_3 >= -2595
 c490: u_a6 - u_a12 - 743 y_a12_proc_2 >= -1297
 c491: u_a6 - u_a12 - 1054 y_a12_proc_3 >= 0
 c492: u_a13 - u_a6 - 988 y_a6_proc_2 >= -2594
 c493: u_a13 - u_a6 - 657 y_a6_proc_3 >= -2594
 c494: u_a6 - u_a13 - 1006 y_a13_proc_2 >= -1
 c495: u_a6 - u_a13 - 1039 y_a13_proc_3 >= -1
 c496: u_a8 - u_a7 - 1278 y_a7_proc_2 >= -3891
 c497: u_a8 - u_a7 - 849 y_a7_proc_1 >= -3891
 c498: u_a8 - u_a7 - 1058 y_a7_proc_3 >= -2594
 c499: u_a7 - u_a8 - 1070 y_a8_proc_2 >= -1298
 c500: u_a7 - u_a8 - 1080 y_a8_proc_1 >= -1298
 c501: u_a7 - u_a8 - 779 y_a8_proc_3 >= -1
 c502: u_a10 - u_a7 - 1278 y_a7_proc_2 >= -3891
 c503: u_a10 - u_a7 - 849 y_a7_proc_1 >= -2594
 c504: u_a7 - u_a10 - 1151 y_a10_proc_2 >= -1298
 c505: u_a7 - u_a10 - 635 y_a10_proc_1 >= -1
 c506: u_a11 - u_a7 - 1278 y_a7_proc_2 >= -2594
 c507: u_a11 - u_a7 - 849 y_a7_proc_1 >= -3891
 c508: u_a11 - u_a7 - 1058 y_a7_proc_3 >= -2594
 c509: u_a7 - u_a11 - 725 y_a11_proc_2 >= -1
 c510: u_a7 - u_a11 - 1028 y_a11_proc_1 >= -1298
 c511: u_a7 - u_a11 - 1226 y_a11_proc_3 >= -1
 c512: u_a12 - u_a7 - 1278 y_a7_proc_2 >= -3892
 c513: u_a12 - u_a7 - 849 y_a7_proc_1 >= -3892
 c514: u_a12 - u_a7 - 1058 y_a7_proc_3 >= -2595
 c515: u_a7 - u_a12 - 743 y_a12_proc_2 >= -1297
 c516: u_a7 - u_a12 - 692 y_a12_proc_1 >= -1297
 c517: u_a7 - u_a12 - 1054 y_a12_proc_3 >= 0
 c518: u_a13 - u_a7 - 1278 y_a7_proc_2 >= -2594
 c519: u_a13 - u_a7 - 849 y_a7_proc_1 >= -3891
 c520: u_a13 - u_a7 - 1058 y_a7_proc_3 >= -2594
 c521: u_a7 - u_a13 - 1006 y_a13_proc_2 >= -1
 c522: u_a7 - u_a13 - 1297 y_a13_proc_1 >= -1298
 c523: u_a7 - u_a13 - 1039 y_a13_proc_3 >= -1
 c524: u_a14 - u_a7 - 849 y_a7_proc_1 >= -2594
 c525: u_a7 - u_a14 - 611 y_a14_proc_1 >= -1
 c526: u_a9 - u_a8 - 817 y_a8_proc_0 >= -1
 c527: u_a8 - u_a9 - 967 y_a9_proc_0 >= 0
 c528: u_a10 - u_a8 - 817 y_a8_proc_0 >= -2595
 c529: u_a10 - u_a8 - 1070 y_a8_proc_2 >= -3892
 c530: u_a10 - u_a8 - 1080 y_a8_proc_1 >= -2595
 c531: u_a8 - u_a10 - 862 y_a10_proc_0 >= 0
 c532: u_a8 - u_a10 - 1151 y_a10_proc_2 >= -1297
 c533: u_a8 - u_a10 - 635 y_a10_proc_1 >= 0
 c534: u_a11 - u_a8 - 817 y_a8_proc_0 >= -2593
 c535: u_a11 - u_a8 - 1070 y_a8_proc_2 >= -2593
 c536: u_a11 - u_a8 - 1080 y_a8_proc_1 >= -3890
 c537: u_a11 - u_a8 - 779 y_a8_proc_3 >= -3890
 c538: u_a8 - u_a11 - 1231 y_a11_proc_0 >= -2
 c539: u_a8 - u_a11 - 725 y_a11_proc_2 >= -2
 c540: u_a8 - u_a11 - 1028 y_a11_proc_1 >= -1299
 c541: u_a8 - u_a11 - 1226 y_a11_proc_3 >= -1299
 c542: u_a12 - u_a8 - 817 y_a8_proc_0 >= -1
 c543: u_a12 - u_a8 - 1070 y_a8_proc_2 >= -2595
 c544: u_a12 - u_a8 - 1080 y_a8_proc_1 >= -2595
 c545: u_a12 - u_a8 - 779 y_a8_proc_3 >= -2595
 c546: u_a8 - u_a12 - 1168 y_a12_proc_0 >= 0
 c547: u_a8 - u_a12 - 743 y_a12_proc_2 >= -2594
 c548: u_a8 - u_a12 - 692 y_a12_proc_1 >= -2594
 c549: u_a8 - u_a12 - 1054 y_a12_proc_3 >= -2594
 c550: u_a13 - u_a8 - 817 y_a8_proc_0 >= 0
 c551: u_a13 - u_a8 - 1070 y_a8_proc_2 >= 0
 c552: u_a13 - u_a8 - 1080 y_a8_proc_1 >= -1297
 c553: u_a13 - u_a8 - 779 y_a8_proc_3 >= -1297
 c554: u_a8 - u_a13 - 1155 y_a13_proc_0 >= -2595
 c555: u_a8 - u_a13 - 1006 y_a13_proc_2 >= -2595
 c556: u_a8 - u_a13 - 1297 y_a13_proc_1 >= -3892
 c557: u_a8 - u_a13 - 1039 y_a13_proc_3 >= -3892
 c558: u_a14 - u_a8 - 817 y_a8_proc_0 >= -2594
 c559: u_a14 - u_a8 - 1080 y_a8_proc_1 >= -2594
 c560: u_a8 - u_a14 - 1016 y_a14_proc_0 >= -1
 c561: u_a8 - u_a14 - 611 y_a14_proc_1 >= -1
 c562: u_a10 - u_a9 - 967 y_a9_proc_0 >= -2594
 c563: u_a9 - u_a10 - 862 y_a10_proc_0 >= -1
 c564: u_a11 - u_a9 - 967 y_a9_proc_0 >= -2593
 c565: u_a9 - u_a11 - 1231 y_a11_proc_0 >= -2
 c566: u_a12 - u_a9 - 967 y_a9_proc_0 >= 0
 c567: u_a9 - u_a12 - 1168 y_a12_proc_0 >= -1
 c568: u_a13 - u_a9 - 967 y_a9_proc_0 >= 0
 c569: u_a9 - u_a13 - 1155 y_a13_proc_0 >= -2595
 c570: u_a14 - u_a9 - 967 y_a9_proc_0 >= -2594
 c571: u_a9 - u_a14 - 1016 y_a14_proc_0 >= -1
 c572: u_a11 - u_a10 - 862 y_a10_proc_0 >= -3890
 c573: u_a11 - u_a10 - 1151 y_a10_proc_2 >= -2593
 c574: u_a11 - u_a10 - 635 y_a10_proc_1 >= -2593
 c575: u_a10 - u_a11 - 1231 y_a11_proc_0 >= -1299
 c576: u_a10 - u_a11 - 725 y_a11_proc_2 >= -2
 c577: u_a10 - u_a11 - 1028 y_a11_proc_1 >= -2
 c578: u_a12 - u_a10 - 862 y_a10_proc_0 >= -2595
 c579: u_a12 - u_a10 - 1151 y_a10_proc_2 >= -3892
 c580: u_a12 - u_a10 - 635 y_a10_proc_1 >= -2595
 c581: u_a10 - u_a12 - 1168 y_a12_proc_0 >= 0
 c582: u_a10 - u_a12 - 743 y_a12_proc_2 >= -1297
 c583: u_a10 - u_a12 - 692 y_a12_proc_1 >= 0
 c584: u_a13 - u_a10 - 862 y_a10_proc_0 >= -3891
 c585: u_a13 - u_a10 - 1151 y_a10_proc_2 >= -2594
 c586: u_a13 - u_a10 - 635 y_a10_proc_1 >= -2594
 c587: u_a10 - u_a13 - 1155 y_a13_proc_0 >= -1298
 c588: u_a10 - u_a13 - 1006 y_a13_proc_2 >= -1
 c589: u_a10 - u_a13 - 1297 y_a13_proc_1 >= -1
 c590: u_a14 - u_a10 - 862 y_a10_proc_0 >= -2594
 c591: u_a14 - u_a10 - 635 y_a10_proc_1 >= 0
 c592: u_a10 - u_a14 - 1016 y_a14_proc_0 >= -2595
 c593: u_a10 - u_a14 - 611 y_a14_proc_1 >= -1
 c594: u_a12 - u_a11 - 1231 y_a11_proc_0 >= -2596
 c595: u_a12 - u_a11 - 725 y_a11_proc_2 >= -2596
 c596: u_a12 - u_a11 - 1028 y_a11_proc_1 >= -3893
 c597: u_a12 - u_a11 - 1226 y_a11_proc_3 >= -3893
 c598: u_a11 - u_a12 - 1168 y_a12_proc_0 >= 1
 c599: u_a11 - u_a12 - 743 y_a12_proc_2 >= 1
 c600: u_a11 - u_a12 - 692 y_a12_proc_1 >= -1296
 c601: u_a11 - u_a12 - 1054 y_a12_proc_3 >= -1296
 c602: u_a13 - u_a11 - 1231 y_a11_proc_0 >= -2595
 c603: u_a13 - u_a11 - 725 y_a11_proc_2 >= -1
 c604: u_a13 - u_a11 - 1028 y_a11_proc_1 >= -2595
 c605: u_a13 - u_a11 - 1226 y_a11_proc_3 >= -2595
 c606: u_a11 - u_a13 - 1155 y_a13_proc_0 >= -2594
 c607: u_a11 - u_a13 - 1006 y_a13_proc_2 >= 0
 c608: u_a11 - u_a13 - 1297 y_a13_proc_1 >= -2594
 c609: u_a11 - u_a13 - 1039 y_a13_proc_3 >= -2594
 c610: u_a14 - u_a11 - 1231 y_a11_proc_0 >= -3892
 c611: u_a14 - u_a11 - 1028 y_a11_proc_1 >= -2595
 c612: u_a11 - u_a14 - 1016 y_a14_proc_0 >= -1297
 c613: u_a11 - u_a14 - 611 y_a14_proc_1 >= 0
 c614: u_a13 - u_a12 - 1168 y_a12_proc_0 >= -2594
 c615: u_a13 - u_a12 - 743 y_a12_proc_2 >= -2594
 c616: u_a13 - u_a12 - 692 y_a12_proc_1 >= -3891
 c617: u_a13 - u_a12 - 1054 y_a12_proc_3 >= -3891
 c618: u_a12 - u_a13 - 1155 y_a13_proc_0 >= -1
 c619: u_a12 - u_a13 - 1006 y_a13_proc_2 >= -1
 c620: u_a12 - u_a13 - 1297 y_a13_proc_1 >= -1298
 c621: u_a12 - u_a13 - 1039 y_a13_proc_3 >= -1298
 c622: u_a14 - u_a12 - 1168 y_a12_proc_0 >= -2594
 c623: u_a14 - u_a12 - 692 y_a12_proc_1 >= -2594
 c624: u_a12 - u_a14 - 1016 y_a14_proc_0 >= -1
 c625: u_a12 - u_a14 - 611 y_a14_proc_1 >= -1
 c626: u_a14 - u_a13 - 1155 y_a13_proc_0 >= -3892
 c627: u_a14 - u_a13 - 1297 y_a13_proc_1 >= -2595
 c628: u_a13 - u_a14 - 1016 y_a14_proc_0 >= -1297
 c629: u_a13 - u_a14 - 611 y_a14_proc_1 >= 0

Bounds
End
